40 40 40
50
23 7 3
21 7 11
28 11 6
6 19 34
19 23 29
13 20 23
1 5 16
9 29 10
27 13 18
34 25 22
11 11 3
31 27 26
4 30 2
34 16 9
3 17 20
15 20 4
27 19 28
33 7 5
33 2 32
25 6 17
31 5 5
5 8 34
22 7 8
9 18 6
33 8 3
25 23 30
1 12 13
23 26 30
32 17 21
28 7 14
9 8 8
5 19 1
20 11 1
8 28 16
32 22 35
14 1 5
28 6 13
33 24 31
27 11 19
26 14 9
22 18 25
31 4 14
23 12 32
33 2 16
2 5 10
33 4 32
7 20 33
9 5 32
17 6 15
9 19 12
